c File: flat50_3_0.col
c
c SOURCE: Joseph Culberson (joe@cs.ualberta.ca)
c DESCRIPTION: Quasi-random coloring problem
c              generated with flatness = 0
c                             probability = 0.139
c                             known coloring = 3
c                             random seed = 1200
c              Creation Date:  Tue Jun  9 12:03:35 1998
c Maximum degree = 8 Minimum degree = 0
c p edge 50 115
c cnf created by edge2cnf
p cnf 150 545
-1 -2 0
-1 -3 0
-2 -3 0
1 2 3 0
-4 -5 0
-4 -6 0
-5 -6 0
4 5 6 0
-7 -8 0
-7 -9 0
-8 -9 0
7 8 9 0
-10 -11 0
-10 -12 0
-11 -12 0
10 11 12 0
-13 -14 0
-13 -15 0
-14 -15 0
13 14 15 0
-16 -17 0
-16 -18 0
-17 -18 0
16 17 18 0
-19 -20 0
-19 -21 0
-20 -21 0
19 20 21 0
-22 -23 0
-22 -24 0
-23 -24 0
22 23 24 0
-25 -26 0
-25 -27 0
-26 -27 0
25 26 27 0
-28 -29 0
-28 -30 0
-29 -30 0
28 29 30 0
-31 -32 0
-31 -33 0
-32 -33 0
31 32 33 0
-34 -35 0
-34 -36 0
-35 -36 0
34 35 36 0
-37 -38 0
-37 -39 0
-38 -39 0
37 38 39 0
-40 -41 0
-40 -42 0
-41 -42 0
40 41 42 0
-43 -44 0
-43 -45 0
-44 -45 0
43 44 45 0
-46 -47 0
-46 -48 0
-47 -48 0
46 47 48 0
-49 -50 0
-49 -51 0
-50 -51 0
49 50 51 0
-52 -53 0
-52 -54 0
-53 -54 0
52 53 54 0
-55 -56 0
-55 -57 0
-56 -57 0
55 56 57 0
-58 -59 0
-58 -60 0
-59 -60 0
58 59 60 0
-61 -62 0
-61 -63 0
-62 -63 0
61 62 63 0
-64 -65 0
-64 -66 0
-65 -66 0
64 65 66 0
-67 -68 0
-67 -69 0
-68 -69 0
67 68 69 0
-70 -71 0
-70 -72 0
-71 -72 0
70 71 72 0
-73 -74 0
-73 -75 0
-74 -75 0
73 74 75 0
-76 -77 0
-76 -78 0
-77 -78 0
76 77 78 0
-79 -80 0
-79 -81 0
-80 -81 0
79 80 81 0
-82 -83 0
-82 -84 0
-83 -84 0
82 83 84 0
-85 -86 0
-85 -87 0
-86 -87 0
85 86 87 0
-88 -89 0
-88 -90 0
-89 -90 0
88 89 90 0
-91 -92 0
-91 -93 0
-92 -93 0
91 92 93 0
-94 -95 0
-94 -96 0
-95 -96 0
94 95 96 0
-97 -98 0
-97 -99 0
-98 -99 0
97 98 99 0
-100 -101 0
-100 -102 0
-101 -102 0
100 101 102 0
-103 -104 0
-103 -105 0
-104 -105 0
103 104 105 0
-106 -107 0
-106 -108 0
-107 -108 0
106 107 108 0
-109 -110 0
-109 -111 0
-110 -111 0
109 110 111 0
-112 -113 0
-112 -114 0
-113 -114 0
112 113 114 0
-115 -116 0
-115 -117 0
-116 -117 0
115 116 117 0
-118 -119 0
-118 -120 0
-119 -120 0
118 119 120 0
-121 -122 0
-121 -123 0
-122 -123 0
121 122 123 0
-124 -125 0
-124 -126 0
-125 -126 0
124 125 126 0
-127 -128 0
-127 -129 0
-128 -129 0
127 128 129 0
-130 -131 0
-130 -132 0
-131 -132 0
130 131 132 0
-133 -134 0
-133 -135 0
-134 -135 0
133 134 135 0
-136 -137 0
-136 -138 0
-137 -138 0
136 137 138 0
-139 -140 0
-139 -141 0
-140 -141 0
139 140 141 0
-142 -143 0
-142 -144 0
-143 -144 0
142 143 144 0
-145 -146 0
-145 -147 0
-146 -147 0
145 146 147 0
-148 -149 0
-148 -150 0
-149 -150 0
148 149 150 0
-52 -1 0
-53 -2 0
-54 -3 0
-73 -1 0
-74 -2 0
-75 -3 0
-109 -1 0
-110 -2 0
-111 -3 0
-115 -1 0
-116 -2 0
-117 -3 0
-127 -1 0
-128 -2 0
-129 -3 0
-139 -1 0
-140 -2 0
-141 -3 0
-67 -4 0
-68 -5 0
-69 -6 0
-79 -4 0
-80 -5 0
-81 -6 0
-94 -4 0
-95 -5 0
-96 -6 0
-103 -4 0
-104 -5 0
-105 -6 0
-130 -4 0
-131 -5 0
-132 -6 0
-139 -4 0
-140 -5 0
-141 -6 0
-142 -4 0
-143 -5 0
-144 -6 0
-88 -7 0
-89 -8 0
-90 -9 0
-97 -7 0
-98 -8 0
-99 -9 0
-130 -7 0
-131 -8 0
-132 -9 0
-136 -7 0
-137 -8 0
-138 -9 0
-148 -7 0
-149 -8 0
-150 -9 0
-76 -10 0
-77 -11 0
-78 -12 0
-82 -10 0
-83 -11 0
-84 -12 0
-97 -10 0
-98 -11 0
-99 -12 0
-100 -10 0
-101 -11 0
-102 -12 0
-52 -13 0
-53 -14 0
-54 -15 0
-55 -13 0
-56 -14 0
-57 -15 0
-70 -13 0
-71 -14 0
-72 -15 0
-91 -13 0
-92 -14 0
-93 -15 0
-112 -13 0
-113 -14 0
-114 -15 0
-121 -13 0
-122 -14 0
-123 -15 0
-142 -13 0
-143 -14 0
-144 -15 0
-148 -13 0
-149 -14 0
-150 -15 0
-94 -16 0
-95 -17 0
-96 -18 0
-115 -16 0
-116 -17 0
-117 -18 0
-127 -16 0
-128 -17 0
-129 -18 0
-82 -19 0
-83 -20 0
-84 -21 0
-91 -19 0
-92 -20 0
-93 -21 0
-94 -19 0
-95 -20 0
-96 -21 0
-97 -19 0
-98 -20 0
-99 -21 0
-61 -22 0
-62 -23 0
-63 -24 0
-79 -22 0
-80 -23 0
-81 -24 0
-82 -22 0
-83 -23 0
-84 -24 0
-88 -22 0
-89 -23 0
-90 -24 0
-145 -22 0
-146 -23 0
-147 -24 0
-58 -25 0
-59 -26 0
-60 -27 0
-136 -25 0
-137 -26 0
-138 -27 0
-145 -25 0
-146 -26 0
-147 -27 0
-58 -28 0
-59 -29 0
-60 -30 0
-88 -28 0
-89 -29 0
-90 -30 0
-121 -28 0
-122 -29 0
-123 -30 0
-133 -28 0
-134 -29 0
-135 -30 0
-61 -31 0
-62 -32 0
-63 -33 0
-91 -31 0
-92 -32 0
-93 -33 0
-136 -31 0
-137 -32 0
-138 -33 0
-139 -31 0
-140 -32 0
-141 -33 0
-58 -34 0
-59 -35 0
-60 -36 0
-79 -34 0
-80 -35 0
-81 -36 0
-115 -34 0
-116 -35 0
-117 -36 0
-124 -34 0
-125 -35 0
-126 -36 0
-148 -34 0
-149 -35 0
-150 -36 0
-64 -37 0
-65 -38 0
-66 -39 0
-100 -37 0
-101 -38 0
-102 -39 0
-133 -37 0
-134 -38 0
-135 -39 0
-52 -43 0
-53 -44 0
-54 -45 0
-88 -43 0
-89 -44 0
-90 -45 0
-109 -43 0
-110 -44 0
-111 -45 0
-112 -43 0
-113 -44 0
-114 -45 0
-121 -43 0
-122 -44 0
-123 -45 0
-136 -43 0
-137 -44 0
-138 -45 0
-67 -46 0
-68 -47 0
-69 -48 0
-73 -46 0
-74 -47 0
-75 -48 0
-82 -46 0
-83 -47 0
-84 -48 0
-109 -46 0
-110 -47 0
-111 -48 0
-121 -46 0
-122 -47 0
-123 -48 0
-145 -46 0
-146 -47 0
-147 -48 0
-70 -49 0
-71 -50 0
-72 -51 0
-73 -49 0
-74 -50 0
-75 -51 0
-112 -49 0
-113 -50 0
-114 -51 0
-130 -49 0
-131 -50 0
-132 -51 0
-106 -52 0
-107 -53 0
-108 -54 0
-112 -52 0
-113 -53 0
-114 -54 0
-142 -52 0
-143 -53 0
-144 -54 0
-106 -55 0
-107 -56 0
-108 -57 0
-112 -58 0
-113 -59 0
-114 -60 0
-127 -58 0
-128 -59 0
-129 -60 0
-133 -58 0
-134 -59 0
-135 -60 0
-145 -58 0
-146 -59 0
-147 -60 0
-124 -61 0
-125 -62 0
-126 -63 0
-106 -64 0
-107 -65 0
-108 -66 0
-118 -64 0
-119 -65 0
-120 -66 0
-127 -64 0
-128 -65 0
-129 -66 0
-115 -67 0
-116 -68 0
-117 -69 0
-109 -70 0
-110 -71 0
-111 -72 0
-127 -70 0
-128 -71 0
-129 -72 0
-130 -70 0
-131 -71 0
-132 -72 0
-109 -73 0
-110 -74 0
-111 -75 0
-112 -73 0
-113 -74 0
-114 -75 0
-142 -73 0
-143 -74 0
-144 -75 0
-124 -76 0
-125 -77 0
-126 -78 0
-130 -76 0
-131 -77 0
-132 -78 0
-118 -79 0
-119 -80 0
-120 -81 0
-103 -82 0
-104 -83 0
-105 -84 0
-112 -82 0
-113 -83 0
-114 -84 0
-142 -82 0
-143 -83 0
-144 -84 0
-103 -85 0
-104 -86 0
-105 -87 0
-109 -85 0
-110 -86 0
-111 -87 0
-121 -85 0
-122 -86 0
-123 -87 0
-124 -85 0
-125 -86 0
-126 -87 0
-130 -88 0
-131 -89 0
-132 -90 0
-136 -91 0
-137 -92 0
-138 -93 0
-139 -91 0
-140 -92 0
-141 -93 0
-106 -94 0
-107 -95 0
-108 -96 0
-121 -94 0
-122 -95 0
-123 -96 0
-133 -94 0
-134 -95 0
-135 -96 0
-118 -97 0
-119 -98 0
-120 -99 0
-127 -97 0
-128 -98 0
-129 -99 0
-139 -97 0
-140 -98 0
-141 -99 0
